Route #1: 1 63 29 24 34 2 13 14 20 1
Route #2: 1 18 52 40 8 64 12 55 49 58 33 1
Route #3: 1 50 44 23 10 15 28 1
Route #4: 1 6 5 37 36 38 31 51 17 1
Route #5: 1 54 45 57 60 53 19 1
Route #6: 1 47 65 7 27 32 35 48 1
Route #7: 1 30 56 22 26 25 9 1
Route #8: 1 16 4 61 42 3 39 62 46 1
Route #9: 1 11 41 59 21 43 1
cost 1408
